
data;

param InvMax := 300000;

param LimiteEmp :=
D	270000
N	150000	;

param LimiteProd	:=
Cerveja			180000
Refrigerantes	180000	;

param InvEmpProd :
	Cerveja		Refrigerantes	:=
D	0.4			0.6
N	1			0	;

param Lucro	:=
D	0.12
N	0.20	;
